NAME: ACTUAL_TOURS/amz2538
TYPE: TOUR
COMMENT: RouteID_293a7abc-59c7-4b32-84e5-501367ab5c4c
DIMENSION: 136
TOUR_SECTION
83
43
42
70
107
56
77
41
84
2
68
97
24
12
13
114
45
5
31
27
127
52
22
130
61
33
60
3
48
7
20
66
124
106
109
10
1
125
71
57
102
46
75
34
18
87
94
91
128
49
64
92
96
6
62
81
79
100
78
54
51
50
69
38
88
40
119
120
103
4
104
98
55
80
37
133
132
117
93
74
121
16
53
29
28
82
76
9
135
58
35
36
23
15
63
115
86
110
131
108
30
65
105
95
44
134
85
67
8
90
111
118
123
101
21
11
113
72
112
19
25
89
73
47
59
126
122
39
32
99
129
17
116
136
14
26
-1
EOF
